(set-logic QF_S)
(declare-fun var0 () String)
(declare-fun var1 () String)
(declare-fun var2 () String)
(declare-fun var3 () String)
(declare-fun var4 () String)
(declare-fun var5 () String)
(declare-fun var6 () String)
(declare-fun var7 () String)
(declare-fun var8 () String)
(declare-fun var9 () String)
(declare-fun var10 () String)
(declare-fun var11 () String)
(declare-fun var12 () String)
(declare-fun var13 () String)
(declare-fun var14 () String)
(declare-fun var15 () String)
(declare-fun var16 () String)
(declare-fun var17 () String)
(declare-fun var18 () String)
(declare-fun var19 () String)
(declare-fun var20 () String)
(declare-fun var21 () String)
(declare-fun var22 () String)
(declare-fun var23 () String)
(declare-fun var24 () String)
(declare-fun var25 () String)
(declare-fun var26 () String)
(declare-fun var27 () String)
(declare-fun var28 () String)
(declare-fun var29 () String)
(declare-fun var30 () String)
(declare-fun var31 () String)
(declare-fun var32 () String)
(declare-fun var33 () String)
(declare-fun var34 () String)
(declare-fun var35 () String)
(declare-fun var36 () String)
(declare-fun var37 () String)
(declare-fun var38 () String)
(declare-fun var39 () String)
(declare-fun var40 () String)
(declare-fun var41 () String)
(declare-fun var42 () String)
(declare-fun var43 () String)
(declare-fun var44 () String)
(declare-fun var45 () String)
(declare-fun var46 () String)
(declare-fun var47 () String)
(declare-fun var48 () String)
(declare-fun var49 () String)
(declare-fun var50 () String)
(declare-fun var51 () String)
(declare-fun var52 () String)
(declare-fun var53 () String)
(declare-fun var54 () String)
(declare-fun var55 () String)
(declare-fun var56 () String)
(declare-fun var57 () String)
(declare-fun var58 () String)
(declare-fun var59 () String)
(declare-fun var60 () String)
(assert (= var0 (Concat var1 var2)))
(assert (= var2 (Concat var3 var4)))
(assert (= var4 (Concat var5 var6)))
(assert (= var6 (Concat var7 var8)))
(assert (= var8 (Concat var9 var10)))
(assert (= var10 (Concat var11 var12)))
(assert (= var12 (Concat var13 var14)))
(assert (= var14 (Concat var15 var16)))
(assert (= var16 (Concat var17 var18)))
(assert (= var18 (Concat var19 var20)))
(assert (= var20 (Concat var21 var22)))
(assert (= var22 (Concat var23 var24)))
(assert (= var24 (Concat var25 var26)))
(assert (= var26 (Concat var27 var28)))
(assert (= var28 (Concat var29 var30)))
(assert (= var30 (Concat var31 var32)))
(assert (= var32 (Concat var33 var34)))
(assert (= var34 (Concat var35 var36)))
(assert (= var36 (Concat var37 var38)))
(assert (= var38 (Concat var39 var40)))
(assert (= var40 (Concat var41 var42)))
(assert (= var42 (Concat var43 var44)))
(assert (= var44 (Concat var45 var46)))
(assert (= var46 (Concat var47 var48)))
(assert (= var48 (Concat var49 var50)))
(assert (= var50 (Concat var51 var52)))
(assert (= var52 (Concat var53 var54)))
(assert (= var54 (Concat var55 var56)))
(assert (= var56 (Concat var57 var58)))
(assert (= var58 (Concat var59 var60)))
(assert (= var0 "solution"))
(assert (= "H" (CharAt var46 728)))
(assert (= "/" (CharAt var32 574)))
(assert (= "Z" (CharAt var31 274)))
(assert (= "v" (CharAt var42 732)))
(assert (= ":" (CharAt var31 387)))
(assert (= "k" (CharAt var23 350)))
(assert (= "W" (CharAt var39 239)))
(assert (= "Y" (CharAt var24 922)))
(assert (= "D" (CharAt var5 433)))
(assert (= "'" (CharAt var27 196)))
(assert (= "(" (CharAt var14 879)))
(assert (= "@" (CharAt var4 878)))
(assert (= "i" (CharAt var29 474)))
(assert (= ">" (CharAt var47 549)))
(assert (= "!" (CharAt var13 971)))
(assert (= "z" (CharAt var50 111)))
(assert (= "q" (CharAt var30 539)))
(assert (= "{" (CharAt var50 767)))
(assert (= "g" (CharAt var27 355)))
(assert (= "n" (CharAt var1 576)))
(assert (= "m" (CharAt var11 952)))
(assert (= "M" (CharAt var17 860)))
(assert (= "q" (CharAt var7 387)))
(assert (= "?" (CharAt var21 350)))
(assert (= "!" (CharAt var4 496)))
(assert (= "j" (CharAt var55 826)))
(assert (= "!" (CharAt var38 37)))
(assert (= "_" (CharAt var4 860)))
(assert (= "p" (CharAt var7 24)))
(assert (= "m" (CharAt var6 597)))
(assert (= "z" (CharAt var51 177)))
(assert (= "<" (CharAt var35 202)))
(assert (= "=" (CharAt var6 173)))
(assert (= "[" (CharAt var60 924)))
(assert (= "Q" (CharAt var31 302)))
(assert (= "n" (CharAt var51 787)))
(assert (= "Y" (CharAt var37 522)))
(assert (= "9" (CharAt var4 884)))
(assert (= "D" (CharAt var40 650)))
(assert (= "w" (CharAt var45 782)))
(assert (= "I" (CharAt var48 596)))
(assert (= ">" (CharAt var10 391)))
(assert (= "E" (CharAt var57 826)))
(assert (= "k" (CharAt var27 226)))
(assert (= "f" (CharAt var54 993)))
(assert (= "o" (CharAt var41 74)))
(assert (= "8" (CharAt var15 459)))
(assert (= "/" (CharAt var52 728)))
(assert (= "q" (CharAt var17 626)))
(assert (= "A" (CharAt var51 749)))
(assert (= "t" (CharAt var59 393)))
(assert (= "A" (CharAt var26 124)))
(assert (= "-" (CharAt var2 533)))
(assert (= "q" (CharAt var47 585)))
(assert (= "j" (CharAt var39 595)))
(assert (= "\\" (CharAt var28 436)))
(assert (= "E" (CharAt var54 776)))
(assert (= "4" (CharAt var27 227)))
(assert (= "9" (CharAt var47 301)))
(assert (= "M" (CharAt var4 950)))
(assert (= "~" (CharAt var47 173)))
(assert (= "r" (CharAt var58 828)))
(assert (= "p" (CharAt var12 521)))
(assert (= "Q" (CharAt var40 605)))
(assert (= "k" (CharAt var7 804)))
(assert (= "&" (CharAt var43 818)))
(assert (= "#" (CharAt var3 544)))
(assert (= "M" (CharAt var19 208)))
(assert (= ";" (CharAt var10 568)))
(assert (= "g" (CharAt var50 402)))
(assert (= "B" (CharAt var19 428)))
(assert (= "$" (CharAt var47 459)))
(assert (= "z" (CharAt var6 431)))
(assert (= "g" (CharAt var29 150)))
(assert (= "j" (CharAt var27 992)))
(assert (= "M" (CharAt var59 172)))
(assert (= ")" (CharAt var20 773)))
(assert (= "." (CharAt var60 724)))
(assert (= "B" (CharAt var46 416)))
(assert (= "j" (CharAt var21 944)))
(assert (= "`" (CharAt var4 237)))
(assert (= "`" (CharAt var55 504)))
(assert (= "Z" (CharAt var31 956)))
(assert (= "|" (CharAt var37 517)))
(assert (= "P" (CharAt var4 220)))
(assert (= "N" (CharAt var58 405)))
(assert (= "U" (CharAt var53 545)))
(assert (= "L" (CharAt var48 732)))
(assert (= "b" (CharAt var29 922)))
(assert (= "a" (CharAt var32 416)))
(assert (= "8" (CharAt var53 298)))
(assert (= "b" (CharAt var3 609)))
(assert (= "&" (CharAt var15 921)))
(assert (= "Z" (CharAt var3 914)))
(assert (= ">" (CharAt var2 833)))
(assert (= "`" (CharAt var13 548)))
(assert (= "&" (CharAt var28 279)))
(assert (= "p" (CharAt var9 723)))
(assert (= "X" (CharAt var30 165)))
(assert (= "E" (CharAt var3 415)))
(assert (= ";" (CharAt var5 974)))
(assert (= "G" (CharAt var15 340)))
(assert (= "I" (CharAt var39 650)))
(assert (= "x" (CharAt var49 84)))
(assert (= "\"" (CharAt var57 744)))
(assert (= "y" (CharAt var26 759)))
(assert (= "W" (CharAt var28 299)))
(assert (= "%" (CharAt var59 404)))
(assert (= "L" (CharAt var51 178)))
(assert (= "|" (CharAt var22 119)))
(assert (= "B" (CharAt var18 418)))
(assert (= "8" (CharAt var0 895)))
(assert (= "H" (CharAt var52 283)))
(assert (= "n" (CharAt var16 688)))
(assert (= "5" (CharAt var56 36)))
(assert (= "L" (CharAt var60 485)))
(assert (= "t" (CharAt var38 266)))
(assert (= "R" (CharAt var3 755)))
(assert (= "b" (CharAt var9 566)))
(assert (= "9" (CharAt var55 39)))
(assert (= ")" (CharAt var42 474)))
(assert (= "w" (CharAt var2 202)))
(assert (= "a" (CharAt var57 698)))
(assert (= "|" (CharAt var14 475)))
(assert (= "." (CharAt var1 737)))
(assert (= "A" (CharAt var47 909)))
(assert (= ":" (CharAt var41 25)))
(assert (= "l" (CharAt var49 717)))
(assert (= "9" (CharAt var0 290)))
(assert (= "`" (CharAt var32 85)))
(assert (= "N" (CharAt var44 374)))
(assert (= "P" (CharAt var56 581)))
(assert (= "u" (CharAt var43 945)))
(assert (= "S" (CharAt var27 163)))
(assert (= "J" (CharAt var57 931)))
(assert (= "!" (CharAt var6 714)))
(assert (= "b" (CharAt var3 571)))
(assert (= "i" (CharAt var54 872)))
(assert (= "~" (CharAt var2 704)))
(assert (= "t" (CharAt var51 209)))
(assert (= "V" (CharAt var4 26)))
(assert (= "A" (CharAt var26 67)))
(assert (= "0" (CharAt var22 697)))
(assert (= "E" (CharAt var18 48)))
(assert (= "." (CharAt var43 425)))
(assert (= "g" (CharAt var41 841)))
(assert (= ":" (CharAt var51 980)))
(assert (= "S" (CharAt var43 141)))
(assert (= "H" (CharAt var58 169)))
(assert (= ")" (CharAt var3 567)))
(assert (= "0" (CharAt var38 395)))
(assert (= "-" (CharAt var24 5)))
(assert (= "/" (CharAt var45 12)))
(assert (= "'" (CharAt var12 396)))
(assert (= ")" (CharAt var59 620)))
(assert (= ")" (CharAt var13 322)))
(assert (= "9" (CharAt var13 899)))
(assert (= "P" (CharAt var13 791)))
(assert (= "A" (CharAt var47 370)))
(assert (= "l" (CharAt var15 356)))
(assert (= "5" (CharAt var2 998)))
(assert (= "]" (CharAt var32 623)))
(assert (= "v" (CharAt var43 234)))
(assert (= "Z" (CharAt var27 69)))
(assert (= "a" (CharAt var29 289)))
(assert (= "z" (CharAt var47 539)))
(assert (= "&" (CharAt var21 302)))
(assert (= "5" (CharAt var15 174)))
(assert (= "E" (CharAt var23 375)))
(assert (= "A" (CharAt var22 624)))
(assert (= "?" (CharAt var55 149)))
(assert (= "^" (CharAt var48 86)))
(assert (= "y" (CharAt var50 133)))
(assert (= "*" (CharAt var46 386)))
(assert (= "{" (CharAt var42 21)))
(assert (= "W" (CharAt var38 949)))
(assert (= "K" (CharAt var19 994)))
(assert (= "E" (CharAt var36 580)))
(assert (= "k" (CharAt var4 945)))
(assert (= "s" (CharAt var24 917)))
(assert (= "G" (CharAt var43 339)))
(assert (= "@" (CharAt var11 502)))
(assert (= "^" (CharAt var51 245)))
(assert (= "5" (CharAt var43 217)))
(assert (= "2" (CharAt var22 343)))
(assert (= "0" (CharAt var40 522)))
(assert (= "C" (CharAt var53 991)))
(assert (= "}" (CharAt var52 231)))
(assert (= "(" (CharAt var22 424)))
(assert (= "$" (CharAt var33 199)))
(assert (= "6" (CharAt var46 135)))
(assert (= "O" (CharAt var49 815)))
(assert (= "m" (CharAt var50 469)))
(assert (= "(" (CharAt var51 263)))
(assert (= "@" (CharAt var6 430)))
(assert (= "!" (CharAt var36 707)))
(assert (= "\"" (CharAt var22 632)))
(assert (= "V" (CharAt var31 834)))
(assert (= "Y" (CharAt var20 172)))
(assert (= "a" (CharAt var11 310)))
(assert (= "F" (CharAt var5 880)))
(assert (= "F" (CharAt var46 213)))
(assert (= "i" (CharAt var53 867)))
(assert (= "d" (CharAt var53 204)))
(assert (= "L" (CharAt var17 806)))
(assert (= "7" (CharAt var53 753)))
(assert (= "T" (CharAt var25 706)))
(assert (= "p" (CharAt var53 124)))
(assert (= "(" (CharAt var15 848)))
(assert (= "|" (CharAt var30 362)))
(assert (= "4" (CharAt var47 671)))
(assert (= "-" (CharAt var54 858)))
(assert (= "_" (CharAt var31 717)))
(assert (= "N" (CharAt var9 322)))
(assert (= "3" (CharAt var9 27)))
(assert (= "8" (CharAt var2 839)))
(assert (= "|" (CharAt var8 27)))
(assert (= "\"" (CharAt var7 349)))
(assert (= "Y" (CharAt var32 336)))
(assert (= "M" (CharAt var13 865)))
(assert (= "?" (CharAt var40 112)))
(assert (= "t" (CharAt var25 738)))
(assert (= "Y" (CharAt var53 412)))
(assert (= "g" (CharAt var28 417)))
(assert (= "$" (CharAt var11 634)))
(assert (= "r" (CharAt var20 534)))
(assert (= "," (CharAt var21 647)))
(assert (= "J" (CharAt var57 283)))
(assert (= "U" (CharAt var18 816)))
(assert (= "m" (CharAt var45 300)))
(assert (= "u" (CharAt var47 62)))
(assert (= "'" (CharAt var6 929)))
(assert (= "g" (CharAt var27 699)))
(assert (= "(" (CharAt var30 953)))
(assert (= "i" (CharAt var50 796)))
(assert (= "W" (CharAt var29 478)))
(assert (= "?" (CharAt var1 630)))
(assert (= "}" (CharAt var14 449)))
(assert (= "3" (CharAt var25 184)))
(assert (= "_" (CharAt var16 936)))
(assert (= ">" (CharAt var5 849)))
(assert (= "{" (CharAt var16 562)))
(assert (= "O" (CharAt var5 750)))
(assert (= "M" (CharAt var22 118)))
(assert (= "6" (CharAt var26 223)))
(assert (= "+" (CharAt var8 115)))
(assert (= "z" (CharAt var18 246)))
(assert (= "<" (CharAt var37 719)))
(assert (= "Y" (CharAt var13 909)))
(assert (= "=" (CharAt var0 70)))
(assert (= "2" (CharAt var9 589)))
(assert (= "6" (CharAt var6 531)))
(assert (= "D" (CharAt var2 408)))
(assert (= "Q" (CharAt var9 920)))
(assert (= "$" (CharAt var56 870)))
(assert (= "n" (CharAt var13 620)))
(assert (= ";" (CharAt var1 834)))
(assert (= ";" (CharAt var57 366)))
(assert (= "l" (CharAt var17 874)))
(assert (= "!" (CharAt var52 100)))
(assert (= "o" (CharAt var28 247)))
(assert (= "j" (CharAt var1 14)))
(assert (= "a" (CharAt var56 164)))
(assert (= "T" (CharAt var19 715)))
(assert (= "E" (CharAt var22 901)))
(assert (= "G" (CharAt var38 95)))
(assert (= "+" (CharAt var28 826)))
(assert (= "F" (CharAt var36 59)))
(assert (= ";" (CharAt var33 172)))
(assert (= "}" (CharAt var54 945)))
(assert (= "?" (CharAt var26 340)))
(assert (= "F" (CharAt var45 915)))
(assert (= "F" (CharAt var42 185)))
(assert (= "}" (CharAt var41 992)))
(assert (= ":" (CharAt var24 655)))
(assert (= ")" (CharAt var11 965)))
(assert (= "i" (CharAt var1 966)))
(assert (= "5" (CharAt var37 918)))
(assert (= "\"" (CharAt var34 782)))
(assert (= "J" (CharAt var56 821)))
(assert (= "<" (CharAt var39 861)))
(assert (= "[" (CharAt var16 722)))
(assert (= "6" (CharAt var25 648)))
(assert (= "\\" (CharAt var22 56)))
(assert (= "P" (CharAt var51 684)))
(assert (= "<" (CharAt var36 705)))
(assert (= "J" (CharAt var24 809)))
(assert (= "z" (CharAt var10 948)))
(assert (= "8" (CharAt var12 552)))
(assert (= "T" (CharAt var8 634)))
(assert (= "G" (CharAt var35 766)))
(assert (= "O" (CharAt var34 631)))
(assert (= "!" (CharAt var10 79)))
(assert (= "\\" (CharAt var22 99)))
(assert (= "A" (CharAt var45 983)))
(assert (= "N" (CharAt var39 766)))
(assert (= "," (CharAt var30 505)))
(assert (= ")" (CharAt var7 376)))
(assert (= "K" (CharAt var28 256)))
(assert (= "I" (CharAt var43 479)))
(assert (= "@" (CharAt var1 198)))
(assert (= "I" (CharAt var15 864)))
(assert (= "d" (CharAt var52 257)))
(assert (= "l" (CharAt var40 10)))
(assert (= "'" (CharAt var15 416)))
(assert (= "2" (CharAt var56 354)))
(assert (= "9" (CharAt var36 396)))
(assert (= "9" (CharAt var29 27)))
(assert (= "|" (CharAt var9 954)))
(assert (= "N" (CharAt var6 516)))
(assert (= "p" (CharAt var19 648)))
(assert (= "w" (CharAt var10 283)))
(assert (= "_" (CharAt var18 445)))
(assert (= "z" (CharAt var26 54)))
(assert (= "g" (CharAt var1 626)))
(assert (= "d" (CharAt var44 556)))
(assert (= "." (CharAt var19 122)))
(assert (= "R" (CharAt var26 527)))
(assert (= "x" (CharAt var4 603)))
(assert (= "9" (CharAt var54 670)))
(assert (= "Z" (CharAt var33 406)))
(assert (= "i" (CharAt var36 410)))
(assert (= "z" (CharAt var53 897)))
(assert (= "G" (CharAt var0 371)))
(assert (= "w" (CharAt var23 438)))
(assert (= "a" (CharAt var37 176)))
(assert (= "O" (CharAt var17 648)))
(assert (= "@" (CharAt var57 213)))
(assert (= "!" (CharAt var11 141)))
(assert (= "%" (CharAt var34 657)))
(assert (= "P" (CharAt var7 499)))
(assert (= "1" (CharAt var32 123)))
(assert (= "L" (CharAt var57 308)))
(assert (= "~" (CharAt var60 468)))
(assert (= "8" (CharAt var42 575)))
(assert (= "b" (CharAt var14 571)))
(assert (= "3" (CharAt var25 377)))
(assert (= "5" (CharAt var58 391)))
(assert (= "R" (CharAt var5 365)))
(assert (= "y" (CharAt var36 506)))
(assert (= "c" (CharAt var43 812)))
(assert (= "T" (CharAt var22 53)))
(assert (= "," (CharAt var31 298)))
(assert (= "7" (CharAt var10 451)))
(assert (= "n" (CharAt var2 475)))
(assert (= "@" (CharAt var29 618)))
(assert (= "." (CharAt var21 599)))
(assert (= "!" (CharAt var54 979)))
(assert (= "7" (CharAt var13 337)))
(assert (= "{" (CharAt var28 355)))
(assert (= "t" (CharAt var3 70)))
(assert (= "`" (CharAt var18 457)))
(assert (= "6" (CharAt var42 843)))
(assert (= "F" (CharAt var2 79)))
(assert (= "8" (CharAt var47 553)))
(assert (= "h" (CharAt var28 701)))
(assert (= "5" (CharAt var40 714)))
(assert (= "X" (CharAt var35 178)))
(assert (= "4" (CharAt var20 4)))
(assert (= "*" (CharAt var38 810)))
(assert (= "5" (CharAt var12 465)))
(assert (= "h" (CharAt var2 868)))
(assert (= "|" (CharAt var44 864)))
(assert (= "z" (CharAt var40 365)))
(assert (= "[" (CharAt var48 17)))
(assert (= "5" (CharAt var13 748)))
(assert (= "S" (CharAt var30 74)))
(assert (= "f" (CharAt var18 402)))
(assert (= "w" (CharAt var46 366)))
(assert (= "&" (CharAt var43 159)))
(assert (= "D" (CharAt var53 351)))
(assert (= "V" (CharAt var37 269)))
(assert (= "1" (CharAt var56 314)))
(assert (= "V" (CharAt var53 449)))
(assert (= "#" (CharAt var15 871)))
(assert (= "i" (CharAt var29 522)))
(assert (= "w" (CharAt var58 667)))
(assert (= "p" (CharAt var41 932)))
(assert (= "k" (CharAt var9 529)))
(assert (= ")" (CharAt var8 290)))
(assert (= "v" (CharAt var42 51)))
(assert (= "K" (CharAt var8 572)))
(assert (= "E" (CharAt var7 395)))
(assert (= "H" (CharAt var38 34)))
(assert (= "\\" (CharAt var14 935)))
(assert (= "u" (CharAt var17 933)))
(assert (= "H" (CharAt var6 184)))
(assert (= "<" (CharAt var14 394)))
(assert (= ")" (CharAt var44 153)))
(assert (= "p" (CharAt var33 338)))
(assert (= "&" (CharAt var50 787)))
(assert (= "Q" (CharAt var31 224)))
(assert (= "B" (CharAt var0 341)))
(assert (= "{" (CharAt var15 504)))
(assert (= "J" (CharAt var36 214)))
(assert (= "o" (CharAt var52 706)))
(assert (= "O" (CharAt var40 792)))
(assert (= "," (CharAt var20 291)))
(assert (= "l" (CharAt var57 313)))
(assert (= "]" (CharAt var40 423)))
(assert (= "'" (CharAt var37 444)))
(assert (= "`" (CharAt var41 830)))
(assert (= "v" (CharAt var10 362)))
(assert (= "{" (CharAt var4 736)))
(assert (= "Y" (CharAt var38 230)))
(assert (= "d" (CharAt var55 845)))
(assert (= "{" (CharAt var28 586)))
(assert (= "~" (CharAt var10 192)))
(assert (= "%" (CharAt var36 509)))
(assert (= "T" (CharAt var39 478)))
(assert (= "5" (CharAt var20 411)))
(assert (= "S" (CharAt var12 248)))
(assert (= "V" (CharAt var48 524)))
(assert (= "}" (CharAt var16 119)))
(assert (= "#" (CharAt var25 249)))
(assert (= "S" (CharAt var46 39)))
(assert (= "_" (CharAt var15 241)))
(assert (= "8" (CharAt var5 979)))
(assert (= "T" (CharAt var18 57)))
(assert (= "O" (CharAt var27 842)))
(assert (= "G" (CharAt var40 920)))
(assert (= "\"" (CharAt var18 211)))
(assert (= "'" (CharAt var5 938)))
(assert (= "c" (CharAt var9 257)))
(assert (= "M" (CharAt var35 692)))
(assert (= "-" (CharAt var40 175)))
(assert (= "v" (CharAt var19 471)))
(assert (= "`" (CharAt var39 682)))
(assert (= "j" (CharAt var15 867)))
(assert (= "+" (CharAt var56 764)))
(assert (= "=" (CharAt var34 678)))
(assert (= "7" (CharAt var19 271)))
(assert (= "1" (CharAt var39 499)))
(assert (= "H" (CharAt var55 291)))
(assert (= "a" (CharAt var7 295)))
(assert (= "q" (CharAt var46 724)))
(assert (= "b" (CharAt var7 887)))
(assert (= "K" (CharAt var57 629)))
(assert (= "J" (CharAt var53 403)))
(assert (= "G" (CharAt var56 143)))
(assert (= "L" (CharAt var25 755)))
(assert (= "4" (CharAt var40 803)))
(assert (= "?" (CharAt var12 363)))
(assert (= "Q" (CharAt var7 513)))
(assert (= "e" (CharAt var39 700)))
(assert (= "x" (CharAt var14 27)))
(assert (= "g" (CharAt var18 288)))
(assert (= "y" (CharAt var40 166)))
(assert (= "C" (CharAt var47 49)))
(assert (= "D" (CharAt var37 728)))
(assert (= "}" (CharAt var47 329)))
(assert (= "=" (CharAt var41 434)))
(assert (= "m" (CharAt var15 659)))
(assert (= "G" (CharAt var7 273)))
(assert (= "0" (CharAt var28 442)))
(assert (= "6" (CharAt var55 147)))
(assert (= "S" (CharAt var11 570)))
(assert (= "," (CharAt var41 402)))
(assert (= "=" (CharAt var60 235)))
(assert (= "/" (CharAt var19 0)))
(assert (= "o" (CharAt var24 355)))
(assert (= "&" (CharAt var58 750)))
(assert (= "Z" (CharAt var44 318)))
(assert (= "&" (CharAt var32 242)))
(assert (= "5" (CharAt var36 388)))
(assert (= "v" (CharAt var36 19)))
(assert (= "K" (CharAt var28 888)))
(assert (= "Y" (CharAt var30 708)))
(assert (= "." (CharAt var60 292)))
(assert (= "g" (CharAt var23 596)))
(assert (= "`" (CharAt var46 927)))
(assert (= "{" (CharAt var48 945)))
(assert (= "F" (CharAt var30 342)))
(assert (= "Q" (CharAt var14 401)))
(assert (= "d" (CharAt var38 714)))
(assert (= "1" (CharAt var57 894)))
(assert (= "\\" (CharAt var56 737)))
(assert (= "X" (CharAt var37 515)))
(assert (= "v" (CharAt var25 568)))
(assert (= ":" (CharAt var46 735)))
(assert (= "D" (CharAt var20 183)))
(assert (= "," (CharAt var15 585)))
(assert (= "S" (CharAt var46 657)))
(assert (= ":" (CharAt var34 111)))
(assert (= "M" (CharAt var45 81)))
(assert (= "~" (CharAt var9 189)))
(assert (= "h" (CharAt var25 626)))
(assert (= "L" (CharAt var60 161)))
(assert (= "I" (CharAt var46 973)))
(assert (= "V" (CharAt var26 713)))
(assert (= "y" (CharAt var10 118)))
(assert (= "J" (CharAt var17 992)))
(assert (= "%" (CharAt var25 508)))
(assert (= "f" (CharAt var32 617)))
(assert (= "P" (CharAt var33 577)))
(assert (= "R" (CharAt var51 268)))
(assert (= "^" (CharAt var38 798)))
(assert (= "S" (CharAt var30 872)))
(assert (= "N" (CharAt var15 301)))
(assert (= "f" (CharAt var37 901)))
(assert (= "5" (CharAt var36 241)))
(assert (= "?" (CharAt var47 739)))
(assert (= "C" (CharAt var60 893)))
(assert (= "L" (CharAt var24 706)))
(assert (= "k" (CharAt var56 419)))
(assert (= "(" (CharAt var60 116)))
(assert (= ">" (CharAt var13 324)))
(assert (= "g" (CharAt var16 202)))
(assert (= "7" (CharAt var43 538)))
(assert (= "z" (CharAt var10 412)))
(assert (= "@" (CharAt var25 378)))
(assert (= "@" (CharAt var24 528)))
(assert (= "r" (CharAt var37 31)))
(assert (= "F" (CharAt var54 30)))
(assert (= "," (CharAt var9 160)))
(assert (= "/" (CharAt var47 350)))
(assert (= "0" (CharAt var37 182)))
(assert (= "&" (CharAt var41 683)))
(assert (= "u" (CharAt var23 662)))
(assert (= "[" (CharAt var1 534)))
(assert (= "a" (CharAt var41 321)))
(assert (= "F" (CharAt var14 86)))
(assert (= "=" (CharAt var46 321)))
(assert (= "_" (CharAt var55 60)))
(assert (= "s" (CharAt var4 714)))
(assert (= "?" (CharAt var18 183)))
(assert (= "*" (CharAt var12 733)))
(assert (= "_" (CharAt var8 583)))
(assert (= "j" (CharAt var40 600)))
(assert (= "8" (CharAt var52 734)))
(assert (= "2" (CharAt var15 913)))
(assert (= "v" (CharAt var57 651)))
(assert (= "j" (CharAt var46 708)))
(assert (= "%" (CharAt var21 968)))
(assert (= "C" (CharAt var25 224)))
(assert (= "f" (CharAt var53 697)))
(assert (= "j" (CharAt var12 75)))
(assert (= "t" (CharAt var56 69)))
(assert (= "R" (CharAt var59 390)))
(assert (= "r" (CharAt var9 893)))
(assert (= "-" (CharAt var19 684)))
(assert (= "e" (CharAt var37 659)))
(assert (= "k" (CharAt var22 526)))
(assert (= "M" (CharAt var16 15)))
(assert (= "k" (CharAt var0 736)))
(assert (= "2" (CharAt var28 765)))
(assert (= "t" (CharAt var10 441)))
(assert (= "h" (CharAt var33 997)))
(assert (= "J" (CharAt var22 656)))
(assert (= "}" (CharAt var3 234)))
(assert (= "~" (CharAt var54 558)))
(assert (= "(" (CharAt var16 455)))
(assert (= "'" (CharAt var10 309)))
(assert (= "^" (CharAt var21 163)))
(assert (= "b" (CharAt var47 452)))
(assert (= "}" (CharAt var3 152)))
(assert (= "Y" (CharAt var31 755)))
(assert (= "(" (CharAt var20 518)))
(assert (= "J" (CharAt var51 621)))
(assert (= ";" (CharAt var37 216)))
(assert (= "x" (CharAt var3 57)))
(assert (= "+" (CharAt var39 66)))
(assert (= "M" (CharAt var26 14)))
(assert (= "v" (CharAt var53 307)))
(assert (= "z" (CharAt var7 592)))
(assert (= "Z" (CharAt var11 793)))
(assert (= "k" (CharAt var29 840)))
(assert (= "," (CharAt var29 221)))
(assert (= "j" (CharAt var56 782)))
(assert (= "K" (CharAt var56 541)))
(assert (= "r" (CharAt var6 704)))
(assert (= "_" (CharAt var46 812)))
(assert (= "i" (CharAt var37 350)))
(assert (= "`" (CharAt var14 794)))
(assert (= "~" (CharAt var44 789)))
(assert (= "F" (CharAt var27 209)))
(assert (= "g" (CharAt var11 455)))
(assert (= "!" (CharAt var54 795)))
(assert (= "2" (CharAt var9 95)))
(assert (= ":" (CharAt var0 141)))
(assert (= "s" (CharAt var38 265)))
(assert (= "T" (CharAt var17 182)))
(assert (= "," (CharAt var50 531)))
(assert (= "p" (CharAt var17 269)))
(assert (= "D" (CharAt var14 737)))
(assert (= "_" (CharAt var23 889)))
(assert (= "i" (CharAt var4 669)))
(assert (= ":" (CharAt var58 883)))
(assert (= ")" (CharAt var2 383)))
(assert (= "1" (CharAt var37 711)))
(assert (= "^" (CharAt var44 163)))
(assert (= "x" (CharAt var31 672)))
(assert (= "a" (CharAt var34 54)))
(assert (= "s" (CharAt var34 335)))
(assert (= ":" (CharAt var31 550)))
(assert (= "b" (CharAt var40 890)))
(assert (= "Q" (CharAt var17 960)))
(assert (= "!" (CharAt var0 347)))
(assert (= "7" (CharAt var37 703)))
(assert (= "]" (CharAt var38 850)))
(assert (= "`" (CharAt var39 496)))
(assert (= "=" (CharAt var31 204)))
(assert (= "y" (CharAt var32 786)))
(assert (= "Z" (CharAt var34 470)))
(assert (= "C" (CharAt var60 688)))
(assert (= "<" (CharAt var29 16)))
(assert (= "&" (CharAt var42 373)))
(assert (= "m" (CharAt var54 327)))
(assert (= "@" (CharAt var3 192)))
(assert (= "5" (CharAt var58 918)))
(assert (= "J" (CharAt var58 16)))
(assert (= "n" (CharAt var22 585)))
(assert (= "b" (CharAt var42 67)))
(assert (= "#" (CharAt var4 204)))
(assert (= "5" (CharAt var47 760)))
(assert (= "$" (CharAt var35 720)))
(assert (= "G" (CharAt var26 113)))
(assert (= "x" (CharAt var56 352)))
(assert (= "g" (CharAt var58 796)))
(assert (= "f" (CharAt var17 315)))
(assert (= "q" (CharAt var42 223)))
(assert (= "o" (CharAt var57 707)))
(assert (= "P" (CharAt var15 862)))
(assert (= "V" (CharAt var23 566)))
(assert (= "t" (CharAt var6 344)))
(assert (= "n" (CharAt var44 502)))
(assert (= "A" (CharAt var57 674)))
(assert (= "e" (CharAt var1 785)))
(assert (= "F" (CharAt var58 625)))
(assert (= "&" (CharAt var2 143)))
(assert (= "0" (CharAt var26 501)))
(assert (= "R" (CharAt var14 106)))
(assert (= "w" (CharAt var37 534)))
(assert (= "G" (CharAt var10 348)))
(assert (= "#" (CharAt var0 113)))
(assert (= "D" (CharAt var23 528)))
(assert (= "Z" (CharAt var17 625)))
(assert (= "O" (CharAt var0 772)))
(assert (= "e" (CharAt var10 102)))
(assert (= "N" (CharAt var10 833)))
(assert (= "_" (CharAt var26 105)))
(assert (= "*" (CharAt var27 231)))
(assert (= "i" (CharAt var1 511)))
(assert (= "E" (CharAt var54 761)))
(assert (= "O" (CharAt var7 756)))
(assert (= "Z" (CharAt var3 682)))
(assert (= "q" (CharAt var21 796)))
(assert (= "R" (CharAt var58 49)))
(assert (= "A" (CharAt var4 968)))
(assert (= "J" (CharAt var2 451)))
(assert (= "1" (CharAt var18 52)))
(assert (= "G" (CharAt var18 939)))
(assert (= "+" (CharAt var36 42)))
(assert (= "M" (CharAt var58 285)))
(assert (= "6" (CharAt var59 31)))
(assert (= "!" (CharAt var59 72)))
(assert (= "*" (CharAt var47 104)))
(assert (= "^" (CharAt var50 975)))
(assert (= "|" (CharAt var23 903)))
(assert (= "0" (CharAt var19 415)))
(assert (= "c" (CharAt var58 642)))
(assert (= "`" (CharAt var10 683)))
(assert (= "{" (CharAt var30 184)))
(assert (= "o" (CharAt var18 571)))
(assert (= "5" (CharAt var44 877)))
(assert (= "o" (CharAt var29 750)))
(assert (= "n" (CharAt var40 498)))
(assert (= "a" (CharAt var32 40)))
(assert (= "2" (CharAt var45 368)))
(assert (= "T" (CharAt var12 670)))
(assert (= "!" (CharAt var1 280)))
(assert (= "&" (CharAt var9 508)))
(assert (= "H" (CharAt var55 861)))
(assert (= "U" (CharAt var4 533)))
(assert (= "@" (CharAt var42 160)))
(assert (= "=" (CharAt var3 613)))
(assert (= "L" (CharAt var33 155)))
(assert (= "h" (CharAt var13 704)))
(assert (= "f" (CharAt var5 257)))
(assert (= "!" (CharAt var31 674)))
(assert (= "r" (CharAt var58 63)))
(assert (= "t" (CharAt var11 476)))
(assert (= "h" (CharAt var47 313)))
(assert (= "T" (CharAt var47 84)))
(assert (= "2" (CharAt var42 338)))
(assert (= "}" (CharAt var0 5)))
(assert (= "d" (CharAt var30 26)))
(assert (= "'" (CharAt var40 383)))
(assert (= "H" (CharAt var44 634)))
(assert (= ";" (CharAt var33 874)))
(assert (= "8" (CharAt var25 421)))
(assert (= "D" (CharAt var19 276)))
(assert (= "," (CharAt var36 544)))
(assert (= "f" (CharAt var52 752)))
(assert (= "\\" (CharAt var7 533)))
(assert (= "~" (CharAt var39 983)))
(assert (= "C" (CharAt var0 467)))
(assert (= "," (CharAt var0 762)))
(assert (= "B" (CharAt var36 222)))
(assert (= "4" (CharAt var38 435)))
(assert (= "L" (CharAt var53 818)))
(assert (= "Z" (CharAt var42 495)))
(assert (= "'" (CharAt var55 429)))
(assert (= "=" (CharAt var26 526)))
(assert (= "D" (CharAt var34 250)))
(assert (= "J" (CharAt var6 950)))
(assert (= ":" (CharAt var10 821)))
(assert (= "2" (CharAt var51 631)))
(assert (= "4" (CharAt var36 89)))
(assert (= "b" (CharAt var49 180)))
(assert (= "^" (CharAt var16 335)))
(assert (= "k" (CharAt var20 52)))
(assert (= "Y" (CharAt var53 807)))
(assert (= "5" (CharAt var54 90)))
(assert (= "H" (CharAt var2 757)))
(assert (= "P" (CharAt var9 319)))
(assert (= "F" (CharAt var44 943)))
(assert (= "X" (CharAt var10 774)))
(assert (= "n" (CharAt var14 540)))
(assert (= "O" (CharAt var43 813)))
(assert (= "W" (CharAt var0 842)))
(assert (= "u" (CharAt var17 534)))
(assert (= "8" (CharAt var25 227)))
(assert (= "J" (CharAt var14 772)))
(assert (= "+" (CharAt var37 541)))
(assert (= "?" (CharAt var33 501)))
(assert (= "L" (CharAt var17 988)))
(assert (= "<" (CharAt var0 102)))
(assert (= "V" (CharAt var24 427)))
(assert (= "d" (CharAt var14 88)))
(assert (= "B" (CharAt var26 66)))
(assert (= "v" (CharAt var36 638)))
(assert (= "K" (CharAt var8 741)))
(assert (= "A" (CharAt var60 98)))
(assert (= "R" (CharAt var15 707)))
(assert (= "m" (CharAt var40 58)))
(assert (= "K" (CharAt var20 571)))
(assert (= "_" (CharAt var26 778)))
(assert (= "," (CharAt var50 467)))
(assert (= "&" (CharAt var1 291)))
(assert (= "T" (CharAt var18 681)))
(assert (= "s" (CharAt var5 868)))
(assert (= "S" (CharAt var49 263)))
(assert (= ":" (CharAt var56 118)))
(assert (= "#" (CharAt var55 302)))
(assert (= "X" (CharAt var58 673)))
(assert (= "|" (CharAt var46 631)))
(assert (= "O" (CharAt var59 787)))
(assert (= "\\" (CharAt var36 658)))
(assert (= "-" (CharAt var60 102)))
(assert (= "G" (CharAt var32 24)))
(assert (= "|" (CharAt var52 853)))
(assert (= "_" (CharAt var30 390)))
(assert (= "e" (CharAt var54 52)))
(assert (= "\\" (CharAt var42 536)))
(assert (= "Y" (CharAt var51 513)))
(assert (= "{" (CharAt var58 310)))
(assert (= "l" (CharAt var47 93)))
(assert (= "K" (CharAt var50 322)))
(assert (= "e" (CharAt var2 716)))
(assert (= "`" (CharAt var34 925)))
(assert (= "F" (CharAt var9 314)))
(assert (= "b" (CharAt var56 518)))
(assert (= "\\" (CharAt var27 799)))
(assert (= "7" (CharAt var41 582)))
(assert (= "l" (CharAt var26 238)))
(assert (= "V" (CharAt var12 532)))
(assert (= "q" (CharAt var5 296)))
(assert (= "G" (CharAt var58 339)))
(assert (= "i" (CharAt var3 569)))
(assert (= "q" (CharAt var54 97)))
(assert (= "o" (CharAt var57 527)))
(assert (= "]" (CharAt var50 827)))
(assert (= "l" (CharAt var14 380)))
(assert (= "|" (CharAt var36 741)))
(assert (= "7" (CharAt var8 223)))
(assert (= "y" (CharAt var13 985)))
(assert (= "%" (CharAt var27 40)))
(assert (= "\"" (CharAt var57 681)))
(assert (= "V" (CharAt var3 2)))
(assert (= "l" (CharAt var12 535)))
(assert (= "(" (CharAt var42 914)))
(assert (= "k" (CharAt var45 218)))
(assert (= "(" (CharAt var28 767)))
(assert (= "J" (CharAt var38 476)))
(assert (= "i" (CharAt var42 0)))
(assert (= "e" (CharAt var18 845)))
(assert (= "K" (CharAt var49 607)))
(assert (= "X" (CharAt var7 175)))
(assert (= "w" (CharAt var38 458)))
(assert (= "'" (CharAt var28 180)))
(assert (= "L" (CharAt var16 62)))
(assert (= "(" (CharAt var20 888)))
(assert (= "0" (CharAt var43 886)))
(assert (= "\"" (CharAt var7 385)))
(assert (= "p" (CharAt var46 679)))
(assert (= "W" (CharAt var9 211)))
(assert (= "x" (CharAt var39 750)))
(assert (= "/" (CharAt var16 516)))
(assert (= "n" (CharAt var2 652)))
(assert (= "|" (CharAt var49 93)))
(assert (= "z" (CharAt var12 704)))
(assert (= "]" (CharAt var39 192)))
(assert (= "r" (CharAt var25 80)))
(assert (= "4" (CharAt var5 836)))
(assert (= "G" (CharAt var8 62)))
(assert (= "`" (CharAt var6 626)))
(assert (= "7" (CharAt var57 806)))
(assert (= "<" (CharAt var36 275)))
(assert (= "#" (CharAt var32 858)))
(assert (= "n" (CharAt var18 163)))
(assert (= "W" (CharAt var9 20)))
(assert (= "&" (CharAt var21 414)))
(assert (= "4" (CharAt var32 979)))
(assert (= "~" (CharAt var5 206)))
(assert (= "j" (CharAt var30 903)))
(assert (= "@" (CharAt var44 600)))
(assert (= "0" (CharAt var60 208)))
(assert (= "N" (CharAt var51 831)))
(assert (= "1" (CharAt var41 572)))
(assert (= ";" (CharAt var26 467)))
(assert (= "g" (CharAt var47 908)))
(assert (= ">" (CharAt var60 348)))
(assert (= "C" (CharAt var9 515)))
(assert (= "j" (CharAt var21 980)))
(assert (= "n" (CharAt var47 856)))
(assert (= "F" (CharAt var20 638)))
(assert (= "R" (CharAt var7 40)))
(assert (= "G" (CharAt var54 144)))
(assert (= "z" (CharAt var7 415)))
(assert (= "e" (CharAt var49 427)))
(assert (= "Z" (CharAt var12 262)))
(assert (= "=" (CharAt var32 969)))
(assert (= "S" (CharAt var34 14)))
(assert (= "j" (CharAt var17 571)))
(assert (= "u" (CharAt var37 445)))
(assert (= "6" (CharAt var40 574)))
(assert (= "y" (CharAt var12 364)))
(assert (= "G" (CharAt var41 620)))
(assert (= "M" (CharAt var12 591)))
(assert (= "P" (CharAt var37 521)))
(assert (= "#" (CharAt var50 949)))
(assert (= ":" (CharAt var60 573)))
(assert (= "k" (CharAt var20 779)))
(assert (= ")" (CharAt var2 460)))
(assert (= "i" (CharAt var0 1000)))
(assert (= "5" (CharAt var47 185)))
(assert (= "*" (CharAt var59 95)))
(assert (= "t" (CharAt var32 922)))
(assert (= "v" (CharAt var42 87)))
(assert (= "!" (CharAt var6 549)))
(assert (= "F" (CharAt var23 17)))
(assert (= "z" (CharAt var51 32)))
(assert (= "h" (CharAt var0 995)))
(assert (= "+" (CharAt var13 582)))
(assert (= "l" (CharAt var27 795)))
(assert (= "S" (CharAt var23 326)))
(assert (= "p" (CharAt var51 887)))
(assert (= "`" (CharAt var40 725)))
(assert (= ":" (CharAt var34 891)))
(assert (= "Y" (CharAt var1 220)))
(assert (= "C" (CharAt var52 49)))
(assert (= "h" (CharAt var40 224)))
(assert (= "?" (CharAt var23 224)))
(assert (= "+" (CharAt var11 731)))
(assert (= "5" (CharAt var45 912)))
(assert (= "q" (CharAt var40 310)))
(assert (= "p" (CharAt var47 763)))
(assert (= "." (CharAt var25 597)))
(assert (= "?" (CharAt var54 738)))
(assert (= "4" (CharAt var27 986)))
(assert (= "M" (CharAt var8 88)))
(assert (= ")" (CharAt var43 365)))
(assert (= "d" (CharAt var1 597)))
(assert (= "A" (CharAt var60 536)))
(assert (= "c" (CharAt var54 256)))
(assert (= "K" (CharAt var10 266)))
(assert (= "f" (CharAt var41 209)))
(assert (= "b" (CharAt var5 188)))
(assert (= "!" (CharAt var52 580)))
(assert (= "$" (CharAt var57 739)))
(assert (= "*" (CharAt var28 598)))
(assert (= "F" (CharAt var0 699)))
(assert (= "f" (CharAt var60 775)))
(assert (= ")" (CharAt var33 534)))
(assert (= "a" (CharAt var36 50)))
(assert (= "g" (CharAt var52 3)))
(assert (= "r" (CharAt var33 483)))
(assert (= "E" (CharAt var38 109)))
(assert (= ";" (CharAt var54 468)))
(assert (= "O" (CharAt var33 864)))
(assert (= "}" (CharAt var42 340)))
(assert (= "&" (CharAt var36 536)))
(assert (= "H" (CharAt var45 302)))
(assert (= ")" (CharAt var51 65)))
(assert (= "r" (CharAt var32 124)))
(assert (= "0" (CharAt var48 785)))
(assert (= "G" (CharAt var7 400)))
(assert (= "J" (CharAt var48 499)))
(assert (= "3" (CharAt var56 74)))
(assert (= ";" (CharAt var4 206)))
(assert (= "K" (CharAt var42 378)))
(assert (= "{" (CharAt var39 37)))
(assert (= "s" (CharAt var30 368)))
(assert (= "%" (CharAt var34 623)))
(assert (= "Y" (CharAt var59 763)))
(assert (= ":" (CharAt var4 365)))
(assert (= "g" (CharAt var39 539)))
(assert (= "," (CharAt var6 322)))
(assert (= "i" (CharAt var43 769)))
(assert (= "d" (CharAt var26 748)))
(assert (= "1" (CharAt var19 571)))
(assert (= "b" (CharAt var3 270)))
(assert (= ";" (CharAt var60 385)))
(assert (= "2" (CharAt var10 153)))
(assert (= "f" (CharAt var17 814)))
(assert (= "r" (CharAt var43 49)))
(assert (= "t" (CharAt var57 902)))
(assert (= "S" (CharAt var38 547)))
(assert (= "0" (CharAt var6 409)))
(assert (= ")" (CharAt var43 436)))
(check-sat)